c n orig vars 110
p cnf 537 1774
111 -1 0
111 -2 0
-111 1 2 0
112 -3 0
112 -4 0
-112 3 4 0
113 -5 0
113 -6 0
-113 5 6 0
114 -7 0
114 -8 0
-114 7 8 0
115 -9 0
115 -10 0
-115 9 10 0
116 -11 0
116 -12 0
-116 11 12 0
117 -13 0
117 -14 0
-117 13 14 0
118 -15 0
118 -16 0
-118 15 16 0
119 -17 0
119 -18 0
-119 17 18 0
120 -19 0
120 -20 0
-120 19 20 0
-121 111 0
-121 112 0
-121 113 0
-121 114 0
-121 115 0
-121 116 0
-121 117 0
-121 118 0
-121 119 0
-121 120 0
121 -111 -112 -113 -114 -115 -116 -117 -118 -119 -120 0
-121 0
122 -21 0
122 -31 0
122 -41 0
122 -51 0
122 -61 0
122 -71 0
122 -81 0
122 -91 0
122 -101 0
-122 21 31 41 51 61 71 81 91 101 0
123 -22 0
123 -32 0
123 -42 0
123 -52 0
123 -62 0
123 -72 0
123 -82 0
123 -92 0
123 -102 0
-123 22 32 42 52 62 72 82 92 102 0
124 -23 0
124 -33 0
124 -43 0
124 -53 0
124 -63 0
124 -73 0
124 -83 0
124 -93 0
124 -103 0
-124 23 33 43 53 63 73 83 93 103 0
125 -24 0
125 -34 0
125 -44 0
125 -54 0
125 -64 0
125 -74 0
125 -84 0
125 -94 0
125 -104 0
-125 24 34 44 54 64 74 84 94 104 0
126 -25 0
126 -35 0
126 -45 0
126 -55 0
126 -65 0
126 -75 0
126 -85 0
126 -95 0
126 -105 0
-126 25 35 45 55 65 75 85 95 105 0
127 -26 0
127 -36 0
127 -46 0
127 -56 0
127 -66 0
127 -76 0
127 -86 0
127 -96 0
127 -106 0
-127 26 36 46 56 66 76 86 96 106 0
128 -27 0
128 -37 0
128 -47 0
128 -57 0
128 -67 0
128 -77 0
128 -87 0
128 -97 0
128 -107 0
-128 27 37 47 57 67 77 87 97 107 0
129 -28 0
129 -38 0
129 -48 0
129 -58 0
129 -68 0
129 -78 0
129 -88 0
129 -98 0
129 -108 0
-129 28 38 48 58 68 78 88 98 108 0
130 -29 0
130 -39 0
130 -49 0
130 -59 0
130 -69 0
130 -79 0
130 -89 0
130 -99 0
130 -109 0
-130 29 39 49 59 69 79 89 99 109 0
131 -30 0
131 -40 0
131 -50 0
131 -60 0
131 -70 0
131 -80 0
131 -90 0
131 -100 0
131 -110 0
-131 30 40 50 60 70 80 90 100 110 0
132 21 0
132 22 0
-132 -21 -22 0
133 21 0
133 23 0
-133 -21 -23 0
134 21 0
134 24 0
-134 -21 -24 0
135 21 0
135 25 0
-135 -21 -25 0
136 21 0
136 26 0
-136 -21 -26 0
137 21 0
137 27 0
-137 -21 -27 0
138 21 0
138 28 0
-138 -21 -28 0
139 21 0
139 29 0
-139 -21 -29 0
140 21 0
140 30 0
-140 -21 -30 0
141 22 0
141 23 0
-141 -22 -23 0
142 22 0
142 24 0
-142 -22 -24 0
143 22 0
143 25 0
-143 -22 -25 0
144 22 0
144 26 0
-144 -22 -26 0
145 22 0
145 27 0
-145 -22 -27 0
146 22 0
146 28 0
-146 -22 -28 0
147 22 0
147 29 0
-147 -22 -29 0
148 22 0
148 30 0
-148 -22 -30 0
149 23 0
149 24 0
-149 -23 -24 0
150 23 0
150 25 0
-150 -23 -25 0
151 23 0
151 26 0
-151 -23 -26 0
152 23 0
152 27 0
-152 -23 -27 0
153 23 0
153 28 0
-153 -23 -28 0
154 23 0
154 29 0
-154 -23 -29 0
155 23 0
155 30 0
-155 -23 -30 0
156 24 0
156 25 0
-156 -24 -25 0
157 24 0
157 26 0
-157 -24 -26 0
158 24 0
158 27 0
-158 -24 -27 0
159 24 0
159 28 0
-159 -24 -28 0
160 24 0
160 29 0
-160 -24 -29 0
161 24 0
161 30 0
-161 -24 -30 0
162 25 0
162 26 0
-162 -25 -26 0
163 25 0
163 27 0
-163 -25 -27 0
164 25 0
164 28 0
-164 -25 -28 0
165 25 0
165 29 0
-165 -25 -29 0
166 25 0
166 30 0
-166 -25 -30 0
167 26 0
167 27 0
-167 -26 -27 0
168 26 0
168 28 0
-168 -26 -28 0
169 26 0
169 29 0
-169 -26 -29 0
170 26 0
170 30 0
-170 -26 -30 0
171 27 0
171 28 0
-171 -27 -28 0
172 27 0
172 29 0
-172 -27 -29 0
173 27 0
173 30 0
-173 -27 -30 0
174 28 0
174 29 0
-174 -28 -29 0
175 28 0
175 30 0
-175 -28 -30 0
176 29 0
176 30 0
-176 -29 -30 0
177 31 0
177 32 0
-177 -31 -32 0
178 31 0
178 33 0
-178 -31 -33 0
179 31 0
179 34 0
-179 -31 -34 0
180 31 0
180 35 0
-180 -31 -35 0
181 31 0
181 36 0
-181 -31 -36 0
182 31 0
182 37 0
-182 -31 -37 0
183 31 0
183 38 0
-183 -31 -38 0
184 31 0
184 39 0
-184 -31 -39 0
185 31 0
185 40 0
-185 -31 -40 0
186 32 0
186 33 0
-186 -32 -33 0
187 32 0
187 34 0
-187 -32 -34 0
188 32 0
188 35 0
-188 -32 -35 0
189 32 0
189 36 0
-189 -32 -36 0
190 32 0
190 37 0
-190 -32 -37 0
191 32 0
191 38 0
-191 -32 -38 0
192 32 0
192 39 0
-192 -32 -39 0
193 32 0
193 40 0
-193 -32 -40 0
194 33 0
194 34 0
-194 -33 -34 0
195 33 0
195 35 0
-195 -33 -35 0
196 33 0
196 36 0
-196 -33 -36 0
197 33 0
197 37 0
-197 -33 -37 0
198 33 0
198 38 0
-198 -33 -38 0
199 33 0
199 39 0
-199 -33 -39 0
200 33 0
200 40 0
-200 -33 -40 0
201 34 0
201 35 0
-201 -34 -35 0
202 34 0
202 36 0
-202 -34 -36 0
203 34 0
203 37 0
-203 -34 -37 0
204 34 0
204 38 0
-204 -34 -38 0
205 34 0
205 39 0
-205 -34 -39 0
206 34 0
206 40 0
-206 -34 -40 0
207 35 0
207 36 0
-207 -35 -36 0
208 35 0
208 37 0
-208 -35 -37 0
209 35 0
209 38 0
-209 -35 -38 0
210 35 0
210 39 0
-210 -35 -39 0
211 35 0
211 40 0
-211 -35 -40 0
212 36 0
212 37 0
-212 -36 -37 0
213 36 0
213 38 0
-213 -36 -38 0
214 36 0
214 39 0
-214 -36 -39 0
215 36 0
215 40 0
-215 -36 -40 0
216 37 0
216 38 0
-216 -37 -38 0
217 37 0
217 39 0
-217 -37 -39 0
218 37 0
218 40 0
-218 -37 -40 0
219 38 0
219 39 0
-219 -38 -39 0
220 38 0
220 40 0
-220 -38 -40 0
221 39 0
221 40 0
-221 -39 -40 0
222 41 0
222 42 0
-222 -41 -42 0
223 41 0
223 43 0
-223 -41 -43 0
224 41 0
224 44 0
-224 -41 -44 0
225 41 0
225 45 0
-225 -41 -45 0
226 41 0
226 46 0
-226 -41 -46 0
227 41 0
227 47 0
-227 -41 -47 0
228 41 0
228 48 0
-228 -41 -48 0
229 41 0
229 49 0
-229 -41 -49 0
230 41 0
230 50 0
-230 -41 -50 0
231 42 0
231 43 0
-231 -42 -43 0
232 42 0
232 44 0
-232 -42 -44 0
233 42 0
233 45 0
-233 -42 -45 0
234 42 0
234 46 0
-234 -42 -46 0
235 42 0
235 47 0
-235 -42 -47 0
236 42 0
236 48 0
-236 -42 -48 0
237 42 0
237 49 0
-237 -42 -49 0
238 42 0
238 50 0
-238 -42 -50 0
239 43 0
239 44 0
-239 -43 -44 0
240 43 0
240 45 0
-240 -43 -45 0
241 43 0
241 46 0
-241 -43 -46 0
242 43 0
242 47 0
-242 -43 -47 0
243 43 0
243 48 0
-243 -43 -48 0
244 43 0
244 49 0
-244 -43 -49 0
245 43 0
245 50 0
-245 -43 -50 0
246 44 0
246 45 0
-246 -44 -45 0
247 44 0
247 46 0
-247 -44 -46 0
248 44 0
248 47 0
-248 -44 -47 0
249 44 0
249 48 0
-249 -44 -48 0
250 44 0
250 49 0
-250 -44 -49 0
251 44 0
251 50 0
-251 -44 -50 0
252 45 0
252 46 0
-252 -45 -46 0
253 45 0
253 47 0
-253 -45 -47 0
254 45 0
254 48 0
-254 -45 -48 0
255 45 0
255 49 0
-255 -45 -49 0
256 45 0
256 50 0
-256 -45 -50 0
257 46 0
257 47 0
-257 -46 -47 0
258 46 0
258 48 0
-258 -46 -48 0
259 46 0
259 49 0
-259 -46 -49 0
260 46 0
260 50 0
-260 -46 -50 0
261 47 0
261 48 0
-261 -47 -48 0
262 47 0
262 49 0
-262 -47 -49 0
263 47 0
263 50 0
-263 -47 -50 0
264 48 0
264 49 0
-264 -48 -49 0
265 48 0
265 50 0
-265 -48 -50 0
266 49 0
266 50 0
-266 -49 -50 0
267 51 0
267 52 0
-267 -51 -52 0
268 51 0
268 53 0
-268 -51 -53 0
269 51 0
269 54 0
-269 -51 -54 0
270 51 0
270 55 0
-270 -51 -55 0
271 51 0
271 56 0
-271 -51 -56 0
272 51 0
272 57 0
-272 -51 -57 0
273 51 0
273 58 0
-273 -51 -58 0
274 51 0
274 59 0
-274 -51 -59 0
275 51 0
275 60 0
-275 -51 -60 0
276 52 0
276 53 0
-276 -52 -53 0
277 52 0
277 54 0
-277 -52 -54 0
278 52 0
278 55 0
-278 -52 -55 0
279 52 0
279 56 0
-279 -52 -56 0
280 52 0
280 57 0
-280 -52 -57 0
281 52 0
281 58 0
-281 -52 -58 0
282 52 0
282 59 0
-282 -52 -59 0
283 52 0
283 60 0
-283 -52 -60 0
284 53 0
284 54 0
-284 -53 -54 0
285 53 0
285 55 0
-285 -53 -55 0
286 53 0
286 56 0
-286 -53 -56 0
287 53 0
287 57 0
-287 -53 -57 0
288 53 0
288 58 0
-288 -53 -58 0
289 53 0
289 59 0
-289 -53 -59 0
290 53 0
290 60 0
-290 -53 -60 0
291 54 0
291 55 0
-291 -54 -55 0
292 54 0
292 56 0
-292 -54 -56 0
293 54 0
293 57 0
-293 -54 -57 0
294 54 0
294 58 0
-294 -54 -58 0
295 54 0
295 59 0
-295 -54 -59 0
296 54 0
296 60 0
-296 -54 -60 0
297 55 0
297 56 0
-297 -55 -56 0
298 55 0
298 57 0
-298 -55 -57 0
299 55 0
299 58 0
-299 -55 -58 0
300 55 0
300 59 0
-300 -55 -59 0
301 55 0
301 60 0
-301 -55 -60 0
302 56 0
302 57 0
-302 -56 -57 0
303 56 0
303 58 0
-303 -56 -58 0
304 56 0
304 59 0
-304 -56 -59 0
305 56 0
305 60 0
-305 -56 -60 0
306 57 0
306 58 0
-306 -57 -58 0
307 57 0
307 59 0
-307 -57 -59 0
308 57 0
308 60 0
-308 -57 -60 0
309 58 0
309 59 0
-309 -58 -59 0
310 58 0
310 60 0
-310 -58 -60 0
311 59 0
311 60 0
-311 -59 -60 0
312 61 0
312 62 0
-312 -61 -62 0
313 61 0
313 63 0
-313 -61 -63 0
314 61 0
314 64 0
-314 -61 -64 0
315 61 0
315 65 0
-315 -61 -65 0
316 61 0
316 66 0
-316 -61 -66 0
317 61 0
317 67 0
-317 -61 -67 0
318 61 0
318 68 0
-318 -61 -68 0
319 61 0
319 69 0
-319 -61 -69 0
320 61 0
320 70 0
-320 -61 -70 0
321 62 0
321 63 0
-321 -62 -63 0
322 62 0
322 64 0
-322 -62 -64 0
323 62 0
323 65 0
-323 -62 -65 0
324 62 0
324 66 0
-324 -62 -66 0
325 62 0
325 67 0
-325 -62 -67 0
326 62 0
326 68 0
-326 -62 -68 0
327 62 0
327 69 0
-327 -62 -69 0
328 62 0
328 70 0
-328 -62 -70 0
329 63 0
329 64 0
-329 -63 -64 0
330 63 0
330 65 0
-330 -63 -65 0
331 63 0
331 66 0
-331 -63 -66 0
332 63 0
332 67 0
-332 -63 -67 0
333 63 0
333 68 0
-333 -63 -68 0
334 63 0
334 69 0
-334 -63 -69 0
335 63 0
335 70 0
-335 -63 -70 0
336 64 0
336 65 0
-336 -64 -65 0
337 64 0
337 66 0
-337 -64 -66 0
338 64 0
338 67 0
-338 -64 -67 0
339 64 0
339 68 0
-339 -64 -68 0
340 64 0
340 69 0
-340 -64 -69 0
341 64 0
341 70 0
-341 -64 -70 0
342 65 0
342 66 0
-342 -65 -66 0
343 65 0
343 67 0
-343 -65 -67 0
344 65 0
344 68 0
-344 -65 -68 0
345 65 0
345 69 0
-345 -65 -69 0
346 65 0
346 70 0
-346 -65 -70 0
347 66 0
347 67 0
-347 -66 -67 0
348 66 0
348 68 0
-348 -66 -68 0
349 66 0
349 69 0
-349 -66 -69 0
350 66 0
350 70 0
-350 -66 -70 0
351 67 0
351 68 0
-351 -67 -68 0
352 67 0
352 69 0
-352 -67 -69 0
353 67 0
353 70 0
-353 -67 -70 0
354 68 0
354 69 0
-354 -68 -69 0
355 68 0
355 70 0
-355 -68 -70 0
356 69 0
356 70 0
-356 -69 -70 0
357 71 0
357 72 0
-357 -71 -72 0
358 71 0
358 73 0
-358 -71 -73 0
359 71 0
359 74 0
-359 -71 -74 0
360 71 0
360 75 0
-360 -71 -75 0
361 71 0
361 76 0
-361 -71 -76 0
362 71 0
362 77 0
-362 -71 -77 0
363 71 0
363 78 0
-363 -71 -78 0
364 71 0
364 79 0
-364 -71 -79 0
365 71 0
365 80 0
-365 -71 -80 0
366 72 0
366 73 0
-366 -72 -73 0
367 72 0
367 74 0
-367 -72 -74 0
368 72 0
368 75 0
-368 -72 -75 0
369 72 0
369 76 0
-369 -72 -76 0
370 72 0
370 77 0
-370 -72 -77 0
371 72 0
371 78 0
-371 -72 -78 0
372 72 0
372 79 0
-372 -72 -79 0
373 72 0
373 80 0
-373 -72 -80 0
374 73 0
374 74 0
-374 -73 -74 0
375 73 0
375 75 0
-375 -73 -75 0
376 73 0
376 76 0
-376 -73 -76 0
377 73 0
377 77 0
-377 -73 -77 0
378 73 0
378 78 0
-378 -73 -78 0
379 73 0
379 79 0
-379 -73 -79 0
380 73 0
380 80 0
-380 -73 -80 0
381 74 0
381 75 0
-381 -74 -75 0
382 74 0
382 76 0
-382 -74 -76 0
383 74 0
383 77 0
-383 -74 -77 0
384 74 0
384 78 0
-384 -74 -78 0
385 74 0
385 79 0
-385 -74 -79 0
386 74 0
386 80 0
-386 -74 -80 0
387 75 0
387 76 0
-387 -75 -76 0
388 75 0
388 77 0
-388 -75 -77 0
389 75 0
389 78 0
-389 -75 -78 0
390 75 0
390 79 0
-390 -75 -79 0
391 75 0
391 80 0
-391 -75 -80 0
392 76 0
392 77 0
-392 -76 -77 0
393 76 0
393 78 0
-393 -76 -78 0
394 76 0
394 79 0
-394 -76 -79 0
395 76 0
395 80 0
-395 -76 -80 0
396 77 0
396 78 0
-396 -77 -78 0
397 77 0
397 79 0
-397 -77 -79 0
398 77 0
398 80 0
-398 -77 -80 0
399 78 0
399 79 0
-399 -78 -79 0
400 78 0
400 80 0
-400 -78 -80 0
401 79 0
401 80 0
-401 -79 -80 0
402 81 0
402 82 0
-402 -81 -82 0
403 81 0
403 83 0
-403 -81 -83 0
404 81 0
404 84 0
-404 -81 -84 0
405 81 0
405 85 0
-405 -81 -85 0
406 81 0
406 86 0
-406 -81 -86 0
407 81 0
407 87 0
-407 -81 -87 0
408 81 0
408 88 0
-408 -81 -88 0
409 81 0
409 89 0
-409 -81 -89 0
410 81 0
410 90 0
-410 -81 -90 0
411 82 0
411 83 0
-411 -82 -83 0
412 82 0
412 84 0
-412 -82 -84 0
413 82 0
413 85 0
-413 -82 -85 0
414 82 0
414 86 0
-414 -82 -86 0
415 82 0
415 87 0
-415 -82 -87 0
416 82 0
416 88 0
-416 -82 -88 0
417 82 0
417 89 0
-417 -82 -89 0
418 82 0
418 90 0
-418 -82 -90 0
419 83 0
419 84 0
-419 -83 -84 0
420 83 0
420 85 0
-420 -83 -85 0
421 83 0
421 86 0
-421 -83 -86 0
422 83 0
422 87 0
-422 -83 -87 0
423 83 0
423 88 0
-423 -83 -88 0
424 83 0
424 89 0
-424 -83 -89 0
425 83 0
425 90 0
-425 -83 -90 0
426 84 0
426 85 0
-426 -84 -85 0
427 84 0
427 86 0
-427 -84 -86 0
428 84 0
428 87 0
-428 -84 -87 0
429 84 0
429 88 0
-429 -84 -88 0
430 84 0
430 89 0
-430 -84 -89 0
431 84 0
431 90 0
-431 -84 -90 0
432 85 0
432 86 0
-432 -85 -86 0
433 85 0
433 87 0
-433 -85 -87 0
434 85 0
434 88 0
-434 -85 -88 0
435 85 0
435 89 0
-435 -85 -89 0
436 85 0
436 90 0
-436 -85 -90 0
437 86 0
437 87 0
-437 -86 -87 0
438 86 0
438 88 0
-438 -86 -88 0
439 86 0
439 89 0
-439 -86 -89 0
440 86 0
440 90 0
-440 -86 -90 0
441 87 0
441 88 0
-441 -87 -88 0
442 87 0
442 89 0
-442 -87 -89 0
443 87 0
443 90 0
-443 -87 -90 0
444 88 0
444 89 0
-444 -88 -89 0
445 88 0
445 90 0
-445 -88 -90 0
446 89 0
446 90 0
-446 -89 -90 0
447 91 0
447 92 0
-447 -91 -92 0
448 91 0
448 93 0
-448 -91 -93 0
449 91 0
449 94 0
-449 -91 -94 0
450 91 0
450 95 0
-450 -91 -95 0
451 91 0
451 96 0
-451 -91 -96 0
452 91 0
452 97 0
-452 -91 -97 0
453 91 0
453 98 0
-453 -91 -98 0
454 91 0
454 99 0
-454 -91 -99 0
455 91 0
455 100 0
-455 -91 -100 0
456 92 0
456 93 0
-456 -92 -93 0
457 92 0
457 94 0
-457 -92 -94 0
458 92 0
458 95 0
-458 -92 -95 0
459 92 0
459 96 0
-459 -92 -96 0
460 92 0
460 97 0
-460 -92 -97 0
461 92 0
461 98 0
-461 -92 -98 0
462 92 0
462 99 0
-462 -92 -99 0
463 92 0
463 100 0
-463 -92 -100 0
464 93 0
464 94 0
-464 -93 -94 0
465 93 0
465 95 0
-465 -93 -95 0
466 93 0
466 96 0
-466 -93 -96 0
467 93 0
467 97 0
-467 -93 -97 0
468 93 0
468 98 0
-468 -93 -98 0
469 93 0
469 99 0
-469 -93 -99 0
470 93 0
470 100 0
-470 -93 -100 0
471 94 0
471 95 0
-471 -94 -95 0
472 94 0
472 96 0
-472 -94 -96 0
473 94 0
473 97 0
-473 -94 -97 0
474 94 0
474 98 0
-474 -94 -98 0
475 94 0
475 99 0
-475 -94 -99 0
476 94 0
476 100 0
-476 -94 -100 0
477 95 0
477 96 0
-477 -95 -96 0
478 95 0
478 97 0
-478 -95 -97 0
479 95 0
479 98 0
-479 -95 -98 0
480 95 0
480 99 0
-480 -95 -99 0
481 95 0
481 100 0
-481 -95 -100 0
482 96 0
482 97 0
-482 -96 -97 0
483 96 0
483 98 0
-483 -96 -98 0
484 96 0
484 99 0
-484 -96 -99 0
485 96 0
485 100 0
-485 -96 -100 0
486 97 0
486 98 0
-486 -97 -98 0
487 97 0
487 99 0
-487 -97 -99 0
488 97 0
488 100 0
-488 -97 -100 0
489 98 0
489 99 0
-489 -98 -99 0
490 98 0
490 100 0
-490 -98 -100 0
491 99 0
491 100 0
-491 -99 -100 0
492 101 0
492 102 0
-492 -101 -102 0
493 101 0
493 103 0
-493 -101 -103 0
494 101 0
494 104 0
-494 -101 -104 0
495 101 0
495 105 0
-495 -101 -105 0
496 101 0
496 106 0
-496 -101 -106 0
497 101 0
497 107 0
-497 -101 -107 0
498 101 0
498 108 0
-498 -101 -108 0
499 101 0
499 109 0
-499 -101 -109 0
500 101 0
500 110 0
-500 -101 -110 0
501 102 0
501 103 0
-501 -102 -103 0
502 102 0
502 104 0
-502 -102 -104 0
503 102 0
503 105 0
-503 -102 -105 0
504 102 0
504 106 0
-504 -102 -106 0
505 102 0
505 107 0
-505 -102 -107 0
506 102 0
506 108 0
-506 -102 -108 0
507 102 0
507 109 0
-507 -102 -109 0
508 102 0
508 110 0
-508 -102 -110 0
509 103 0
509 104 0
-509 -103 -104 0
510 103 0
510 105 0
-510 -103 -105 0
511 103 0
511 106 0
-511 -103 -106 0
512 103 0
512 107 0
-512 -103 -107 0
513 103 0
513 108 0
-513 -103 -108 0
514 103 0
514 109 0
-514 -103 -109 0
515 103 0
515 110 0
-515 -103 -110 0
516 104 0
516 105 0
-516 -104 -105 0
517 104 0
517 106 0
-517 -104 -106 0
518 104 0
518 107 0
-518 -104 -107 0
519 104 0
519 108 0
-519 -104 -108 0
520 104 0
520 109 0
-520 -104 -109 0
521 104 0
521 110 0
-521 -104 -110 0
522 105 0
522 106 0
-522 -105 -106 0
523 105 0
523 107 0
-523 -105 -107 0
524 105 0
524 108 0
-524 -105 -108 0
525 105 0
525 109 0
-525 -105 -109 0
526 105 0
526 110 0
-526 -105 -110 0
527 106 0
527 107 0
-527 -106 -107 0
528 106 0
528 108 0
-528 -106 -108 0
529 106 0
529 109 0
-529 -106 -109 0
530 106 0
530 110 0
-530 -106 -110 0
531 107 0
531 108 0
-531 -107 -108 0
532 107 0
532 109 0
-532 -107 -109 0
533 107 0
533 110 0
-533 -107 -110 0
534 108 0
534 109 0
-534 -108 -109 0
535 108 0
535 110 0
-535 -108 -110 0
536 109 0
536 110 0
-536 -109 -110 0
-537 122 0
-537 123 0
-537 124 0
-537 125 0
-537 126 0
-537 127 0
-537 128 0
-537 129 0
-537 130 0
-537 131 0
-537 132 0
-537 133 0
-537 134 0
-537 135 0
-537 136 0
-537 137 0
-537 138 0
-537 139 0
-537 140 0
-537 141 0
-537 142 0
-537 143 0
-537 144 0
-537 145 0
-537 146 0
-537 147 0
-537 148 0
-537 149 0
-537 150 0
-537 151 0
-537 152 0
-537 153 0
-537 154 0
-537 155 0
-537 156 0
-537 157 0
-537 158 0
-537 159 0
-537 160 0
-537 161 0
-537 162 0
-537 163 0
-537 164 0
-537 165 0
-537 166 0
-537 167 0
-537 168 0
-537 169 0
-537 170 0
-537 171 0
-537 172 0
-537 173 0
-537 174 0
-537 175 0
-537 176 0
-537 177 0
-537 178 0
-537 179 0
-537 180 0
-537 181 0
-537 182 0
-537 183 0
-537 184 0
-537 185 0
-537 186 0
-537 187 0
-537 188 0
-537 189 0
-537 190 0
-537 191 0
-537 192 0
-537 193 0
-537 194 0
-537 195 0
-537 196 0
-537 197 0
-537 198 0
-537 199 0
-537 200 0
-537 201 0
-537 202 0
-537 203 0
-537 204 0
-537 205 0
-537 206 0
-537 207 0
-537 208 0
-537 209 0
-537 210 0
-537 211 0
-537 212 0
-537 213 0
-537 214 0
-537 215 0
-537 216 0
-537 217 0
-537 218 0
-537 219 0
-537 220 0
-537 221 0
-537 222 0
-537 223 0
-537 224 0
-537 225 0
-537 226 0
-537 227 0
-537 228 0
-537 229 0
-537 230 0
-537 231 0
-537 232 0
-537 233 0
-537 234 0
-537 235 0
-537 236 0
-537 237 0
-537 238 0
-537 239 0
-537 240 0
-537 241 0
-537 242 0
-537 243 0
-537 244 0
-537 245 0
-537 246 0
-537 247 0
-537 248 0
-537 249 0
-537 250 0
-537 251 0
-537 252 0
-537 253 0
-537 254 0
-537 255 0
-537 256 0
-537 257 0
-537 258 0
-537 259 0
-537 260 0
-537 261 0
-537 262 0
-537 263 0
-537 264 0
-537 265 0
-537 266 0
-537 267 0
-537 268 0
-537 269 0
-537 270 0
-537 271 0
-537 272 0
-537 273 0
-537 274 0
-537 275 0
-537 276 0
-537 277 0
-537 278 0
-537 279 0
-537 280 0
-537 281 0
-537 282 0
-537 283 0
-537 284 0
-537 285 0
-537 286 0
-537 287 0
-537 288 0
-537 289 0
-537 290 0
-537 291 0
-537 292 0
-537 293 0
-537 294 0
-537 295 0
-537 296 0
-537 297 0
-537 298 0
-537 299 0
-537 300 0
-537 301 0
-537 302 0
-537 303 0
-537 304 0
-537 305 0
-537 306 0
-537 307 0
-537 308 0
-537 309 0
-537 310 0
-537 311 0
-537 312 0
-537 313 0
-537 314 0
-537 315 0
-537 316 0
-537 317 0
-537 318 0
-537 319 0
-537 320 0
-537 321 0
-537 322 0
-537 323 0
-537 324 0
-537 325 0
-537 326 0
-537 327 0
-537 328 0
-537 329 0
-537 330 0
-537 331 0
-537 332 0
-537 333 0
-537 334 0
-537 335 0
-537 336 0
-537 337 0
-537 338 0
-537 339 0
-537 340 0
-537 341 0
-537 342 0
-537 343 0
-537 344 0
-537 345 0
-537 346 0
-537 347 0
-537 348 0
-537 349 0
-537 350 0
-537 351 0
-537 352 0
-537 353 0
-537 354 0
-537 355 0
-537 356 0
-537 357 0
-537 358 0
-537 359 0
-537 360 0
-537 361 0
-537 362 0
-537 363 0
-537 364 0
-537 365 0
-537 366 0
-537 367 0
-537 368 0
-537 369 0
-537 370 0
-537 371 0
-537 372 0
-537 373 0
-537 374 0
-537 375 0
-537 376 0
-537 377 0
-537 378 0
-537 379 0
-537 380 0
-537 381 0
-537 382 0
-537 383 0
-537 384 0
-537 385 0
-537 386 0
-537 387 0
-537 388 0
-537 389 0
-537 390 0
-537 391 0
-537 392 0
-537 393 0
-537 394 0
-537 395 0
-537 396 0
-537 397 0
-537 398 0
-537 399 0
-537 400 0
-537 401 0
-537 402 0
-537 403 0
-537 404 0
-537 405 0
-537 406 0
-537 407 0
-537 408 0
-537 409 0
-537 410 0
-537 411 0
-537 412 0
-537 413 0
-537 414 0
-537 415 0
-537 416 0
-537 417 0
-537 418 0
-537 419 0
-537 420 0
-537 421 0
-537 422 0
-537 423 0
-537 424 0
-537 425 0
-537 426 0
-537 427 0
-537 428 0
-537 429 0
-537 430 0
-537 431 0
-537 432 0
-537 433 0
-537 434 0
-537 435 0
-537 436 0
-537 437 0
-537 438 0
-537 439 0
-537 440 0
-537 441 0
-537 442 0
-537 443 0
-537 444 0
-537 445 0
-537 446 0
-537 447 0
-537 448 0
-537 449 0
-537 450 0
-537 451 0
-537 452 0
-537 453 0
-537 454 0
-537 455 0
-537 456 0
-537 457 0
-537 458 0
-537 459 0
-537 460 0
-537 461 0
-537 462 0
-537 463 0
-537 464 0
-537 465 0
-537 466 0
-537 467 0
-537 468 0
-537 469 0
-537 470 0
-537 471 0
-537 472 0
-537 473 0
-537 474 0
-537 475 0
-537 476 0
-537 477 0
-537 478 0
-537 479 0
-537 480 0
-537 481 0
-537 482 0
-537 483 0
-537 484 0
-537 485 0
-537 486 0
-537 487 0
-537 488 0
-537 489 0
-537 490 0
-537 491 0
-537 492 0
-537 493 0
-537 494 0
-537 495 0
-537 496 0
-537 497 0
-537 498 0
-537 499 0
-537 500 0
-537 501 0
-537 502 0
-537 503 0
-537 504 0
-537 505 0
-537 506 0
-537 507 0
-537 508 0
-537 509 0
-537 510 0
-537 511 0
-537 512 0
-537 513 0
-537 514 0
-537 515 0
-537 516 0
-537 517 0
-537 518 0
-537 519 0
-537 520 0
-537 521 0
-537 522 0
-537 523 0
-537 524 0
-537 525 0
-537 526 0
-537 527 0
-537 528 0
-537 529 0
-537 530 0
-537 531 0
-537 532 0
-537 533 0
-537 534 0
-537 535 0
-537 536 0
537 -122 -123 -124 -125 -126 -127 -128 -129 -130 -131 -132 -133 -134 -135 -136 -137 -138 -139 -140 -141 -142 -143 -144 -145 -146 -147 -148 -149 -150 -151 -152 -153 -154 -155 -156 -157 -158 -159 -160 -161 -162 -163 -164 -165 -166 -167 -168 -169 -170 -171 -172 -173 -174 -175 -176 -177 -178 -179 -180 -181 -182 -183 -184 -185 -186 -187 -188 -189 -190 -191 -192 -193 -194 -195 -196 -197 -198 -199 -200 -201 -202 -203 -204 -205 -206 -207 -208 -209 -210 -211 -212 -213 -214 -215 -216 -217 -218 -219 -220 -221 -222 -223 -224 -225 -226 -227 -228 -229 -230 -231 -232 -233 -234 -235 -236 -237 -238 -239 -240 -241 -242 -243 -244 -245 -246 -247 -248 -249 -250 -251 -252 -253 -254 -255 -256 -257 -258 -259 -260 -261 -262 -263 -264 -265 -266 -267 -268 -269 -270 -271 -272 -273 -274 -275 -276 -277 -278 -279 -280 -281 -282 -283 -284 -285 -286 -287 -288 -289 -290 -291 -292 -293 -294 -295 -296 -297 -298 -299 -300 -301 -302 -303 -304 -305 -306 -307 -308 -309 -310 -311 -312 -313 -314 -315 -316 -317 -318 -319 -320 -321 -322 -323 -324 -325 -326 -327 -328 -329 -330 -331 -332 -333 -334 -335 -336 -337 -338 -339 -340 -341 -342 -343 -344 -345 -346 -347 -348 -349 -350 -351 -352 -353 -354 -355 -356 -357 -358 -359 -360 -361 -362 -363 -364 -365 -366 -367 -368 -369 -370 -371 -372 -373 -374 -375 -376 -377 -378 -379 -380 -381 -382 -383 -384 -385 -386 -387 -388 -389 -390 -391 -392 -393 -394 -395 -396 -397 -398 -399 -400 -401 -402 -403 -404 -405 -406 -407 -408 -409 -410 -411 -412 -413 -414 -415 -416 -417 -418 -419 -420 -421 -422 -423 -424 -425 -426 -427 -428 -429 -430 -431 -432 -433 -434 -435 -436 -437 -438 -439 -440 -441 -442 -443 -444 -445 -446 -447 -448 -449 -450 -451 -452 -453 -454 -455 -456 -457 -458 -459 -460 -461 -462 -463 -464 -465 -466 -467 -468 -469 -470 -471 -472 -473 -474 -475 -476 -477 -478 -479 -480 -481 -482 -483 -484 -485 -486 -487 -488 -489 -490 -491 -492 -493 -494 -495 -496 -497 -498 -499 -500 -501 -502 -503 -504 -505 -506 -507 -508 -509 -510 -511 -512 -513 -514 -515 -516 -517 -518 -519 -520 -521 -522 -523 -524 -525 -526 -527 -528 -529 -530 -531 -532 -533 -534 -535 -536 0
-537 0
